SYSTEM = automatically generated by pyflamestk

# *****************************STARTING INFORMATION*****************************
ISTART = 0                    ! begin from scratch
ICHARG = 0                    ! Calculate charge density from initial wave functions.

# ******************************DENSITY OF STATES*******************************
ISMEAR = 0                    ! method of Gaussian smearing
SIGMA = 0.05                  ! width of the smearing in eV.

# **************************ELECTRONIC SCF RELAXATION***************************
ALGO = Normal                 ! blocked Davidson iteration scheme
PREC = High                   ! avoid wrap around errors
LREAL = .FALSE.               ! projection done in reciprocal space
EDIFF = 1e-06                 ! convergence condition for SC-loop in eV
ENCUT = 600                   ! Cut-off energy for plane wave basis set in eV
NELM = 40                     ! maximum number of electronic SC

# ***********************SPIN POLARIZATION CONFIGURATION************************
ISPIN = 1                     ! non-spin polarized calculations

# *****************************OUTPUT CONFIGURATION*****************************
LWAVE = .FALSE.               ! do not write WAVECAR
LCHARG = .FALSE.              ! no CHGCAR, no CHG
LVTOT = .FALSE.               ! no LOCPOT

