# Input file for Stack Fault Energy surface of Aluminum
# Modification Eugene J. Ragasa, 2018
# Adapted from Phillip Spear, 2012

# ------------------------ INITIALIZATION ----------------------
units metal
dimension 3
boundary p p s
atom_style atomic
variable a0 equal 3.52

variable xdim equal ${a0}*sqrt(6)/2*10
variable ydim equal ${a0}*sqrt(2)/2*10

# ----------------------- ATOM DEFINITION ----------------------
lattice fcc ${a0}
region 1 block 0 ${xdim} 0 ${ydim} 0 20 
region 2 block 0 ${xdim} 0 ${ydim} 20 40
region whole block 0 ${xdim} 0 ${ydim} 0 200 units box
create_box 1 whole
lattice fcc ${a0} orient x 1 1 2 orient y -1 1 0 orient z -1 -1 1
create_atoms 1 region 1
lattice fcc ${a0} orient x 1 1 2 orient y -1 1 0 orient z -1 -1 1
create_atoms 1 region 2

# ----------------------- FORCE FIELDS -----------------------
pair_style eam/alloy
pair_coeff * * ../potential_db/Mishin-Ni-Al-2009.eam.alloy Ni

# ------------------------- SETTINGS --------------------------
group top region 1
group bot region 2

# ------------------------- Displacement -----------------------
displace_atoms bot move -1.0 0.0 0.0 units box
compute peratom all pe/atom
compute eatoms all reduce sum c_peratom

# Dump to comp  for Ovito post processing 
dump 1 all custom 1 dump.comp.* id type xs ys zs c_peratom fx fy fz

thermo 1
thermo_style custom step pe c_eatoms

fix 1 all setforce 0 0 NULL

min_style cg
minimize 1e-10 1e-10 1 1

# SIMULATION DONE
#print ${x}
print "All done"

