Automatically generated by pypospack    
   1.00000000000000     
     2.3571232747635191   -0.0000000000000000   -0.0000000000000000
    -0.0000000000000000    2.3571232747635187   -0.0000000000000000
    -0.0000000000000000    0.0000000000000000    2.3571232747635191
   Ni
     1
Direct
  0.0000000000000000  0.0000000000000000  0.0000000000000000
 
  0.00000000E+00  0.00000000E+00  0.00000000E+00
