Automatically generated by pypospack
       1.0
  3.508000   0.000000   0.000000
  0.000000   3.508000   0.000000
  0.000000   0.000000   3.508000
 Ni
 1
Direct
  0.000000   0.000000   0.000000
