# ---- initialize simulations
clear
units metal
dimension 3
boundary p p p
atom_style atomic
atom_modify map array
# ---- create atoms
read_data /home/sullberg/repos/pypospack/examples/Ni__eam__born_exp_rose/01_preconditioning_3.5NN/rank_12/Ni_dia.lmps_min_all/lammps.structure
# ---- define interatomic potential
include potential.mod
# ---- define settings
compute eng all pe/atom
compute eatoms all reduce sum c_eng
# ---- run minimization
reset_timestep 0
fix 1 all box/relax aniso 0.0 vmax 0.001
thermo 10
thermo_style custom step pe xhi xlo yhi ylo zhi xy xz yz press pxx pyy pzz pxy pxz pyz c_eatoms
min_style cg
minimize 1e-25 1e-25 5000 10000
# ---- define output variables ----
variable natoms equal "count(all)"
variable tot_energy equal "c_eatoms"
variable a11 equal "xhi-xlo"
variable a22 equal "yhi-ylo"
variable a33 equal "zhi-zlo"
variable tilt_xy equal "xy"
variable tilt_xz equal "xz"
variable tilt_yz equal "yz"
variable tot_press equal "press"
variable press_xx equal "pxx"
variable press_yy equal "pyy"
variable press_zz equal "pzz"
variable press_xy equal "pxy"
variable press_xz equal "pxz"
variable press_yz equal "pyz"

# ---- output ----
print "pypospack:output_section:begin"
print "tot_energy = ${tot_energy}"
print "num_atoms = ${natoms}"
print "a11 = ${a11}"
print "a22 = ${a22}"
print "a33 = ${a33}"
print "a12 = ${tilt_xy}"
print "a13 = ${tilt_xz}"
print "a23 = ${tilt_yz}"
print "tot_press = ${tot_press}"
print "pxx = ${press_xx}"
print "pyy = ${press_yy}"
print "pzz = ${press_zz}"
print "pxy = ${press_xy}"
print "pxz = ${press_xz}"
print "pyz = ${press_yz}"
print "pypospack:output_section:done"
print "pypospack:lammps_sim:done"
