Mg1 O1
       1.0
  1.000000   0.000000   0.000000
  0.000000   1.000000   0.000000
  0.000000   0.000000   1.000000
 O Mg
 1 1
Direct
  0.500000   0.500000   0.500000
  0.000000   0.000000   0.000000
