Mg1 O1                                  
   1.00000000000000     
     3.0018189999999998    0.0000000000000000    0.0000000000000000
     1.5009100000000000    2.5996519999999999    0.0000000000000000
     1.5009100000000000    0.8665510000000000    2.4509750000000001
   O    Mg
     1     1
Direct
  0.5000000000000000  0.5000000000000000  0.5000000000000000
  0.0000000000000000  0.0000000000000000  0.0000000000000000
 
  0.00000000E+00  0.00000000E+00  0.00000000E+00
  0.00000000E+00  0.00000000E+00  0.00000000E+00
