Automatically generated by pypospack    
   1.00000000000000     
     3.4921021233680527   -0.0000000000000000   -0.0000000000000000
     0.0000000000000000    3.4921021233680527    0.0000000000000000
     0.0000000000000000    0.0000000000000000    3.4921021233680527
   Ni
     4
Direct
 -0.0000000000000000  0.0000000000000000 -0.0000000000000000
  0.0000000000000000  0.5000000000000000  0.5000000000000000
  0.5000000000000000 -0.0000000000000000  0.5000000000000000
  0.5000000000000000  0.5000000000000000 -0.0000000000000000
 
  0.00000000E+00  0.00000000E+00  0.00000000E+00
  0.00000000E+00  0.00000000E+00  0.00000000E+00
  0.00000000E+00  0.00000000E+00  0.00000000E+00
  0.00000000E+00  0.00000000E+00  0.00000000E+00
