Automatically generated by pypospack    
   1.00000000000000     
     2.7937390931052053    0.0000000000000000    0.0000000000000000
     0.0000000000000000    2.7937390931052053    0.0000000000000000
    -0.0000000000000000    0.0000000000000000    2.7937390931052053
   Ni
     2
Direct
 -0.0000000000000000 -0.0000000000000000 -0.0000000000000000
  0.5000000000000000  0.5000000000000000  0.5000000000000000
 
  0.00000000E+00  0.00000000E+00  0.00000000E+00
  0.00000000E+00  0.00000000E+00  0.00000000E+00
