# ---- initialize simulations
clear
units metal
dimension 3
boundary p p p
atom_style charge
atom_modify map array
# ---- create atoms
read_data lammps.structure
# ---- define interatomic potential
include potential.mod

# ---- define settings
compute eng all pe/atom
compute eatoms all reduce sum c_eng

# ---- run minimization
reset_timestep 0
fix 1 all box/relax iso 0.0 vmax 0.001
thermo 10
thermo_style custom step pe lx ly lz xy xz yz press pxx pyy pzz pxy pxz pyz c_eatoms
min_style cg
# energy tolerance = 1e-25, force tolerance = 1e-25
minimize 1e-25 1e-25 5000 10000

variable natoms equal "count(all)"
variable tot_energy equal "c_eatoms"
variable length_x equal "lx"
variable length_y equal "ly"
variable length_z equal "lz"
variable tilt_xy equal "xy"
variable tilt_xz equal "xz"
variable tilt_yz equal "yz"
variable tot_press equal "press"
variable press_xx equal "pxx"
variable press_yy equal "pyy"
variable press_zz equal "pzz"
variable press_xy equal "pxy"
variable press_xz equal "pxz"
variable press_yz equal "pyz"

variable ecoh equal "pe/atoms"
#variable ecoh equal "v_etotal/v_atoms"
# --- output
print "pyPosMat output section"
print "tot_energy = ${tot_energy}"
print "num_atoms = ${natoms}"
print "xx = ${length_x}"
print "yy = ${length_y}"
print "zz = ${length_z}"
print "xy = ${tilt_xy}"
print "xz = ${tilt_xz}"
print "yz = ${tilt_yz}"
print "tot_press = ${tot_press}"
print "pxx = ${press_xx}"
print "pyy = ${press_yy}"
print "pzz = ${press_zz}"
print "pxy = ${press_xy}"
print "pxz = ${press_xz}"
print "pyz = ${press_yz}"
print "ecoh = ${ecoh}"
print "lammps_sim_done"
