Mg1 O1
       1.0
  3.001819  -0.000000   0.000000
  1.500910   2.599652  -0.000000
  1.500910   0.866551   2.450975
 O Mg
 1 1
Direct
  0.500000   0.500000   0.500000
  0.000000  -0.000000  -0.000000
