opti conp prop phon eigen
vectors
3.0097880363         0.0000000000         0.0000000000
1.5048940182         2.6065528995         0.0000000000
1.5048940182         0.8688509665         2.4574816410
fractional
Mg core 0.000000000         0.000000000         0.000000000
O core 0.5 0.5 0.5
species
Mg core 2.0
O  core -2.0
buck
Mg core Mg core 0.0 0.5 0.0 0.0 12.
Mg core O core 821.6 0.3242 0.0 0.0 12.
O core O core 2274. 0.1490 27.88 0 12.
shrink
1 1 1
kpoints
10 10 10
output freq text freq.gulp
output phonon text phonon.gulp
