opti conp prop phon eigen
vectors
1.0000000000 0.0000000000 0.0000000000
0.0000000000 1.0000000000 0.0000000000
0.0000000000 0.0000000000 1.0000000000
fractional
O core 0.5 0.5 0.5
Mg core 0.0 0.0 0.0
species
Mg core 2.0
O core -2.0
buck
Mg core Mg core 0.0 0.5 0.0 0 10.0
Mg core O core 821.6 0.3242 0.0 0 10.0
O core O core 2274.0 0.149 27.88 0 10.0
shrink
8 8 8
kpoints
10 10 10
output freq text freq.gulp 12 
output phonon text phonon.gulp
output osc test phonon.osc
