Automatically generated by pypospack    
   1.00000000000000     
     3.0201056977066356   -0.0000000000000000    0.0000000000000000
    -1.5100528488533178    2.6154881884507928   -0.0000000000000000
     0.0000000000000000    0.0000000000000000    4.8945276788549306
   Ni
     2
Direct
  0.0000000000000000 -0.0000000000000000  0.0000000000000000
  0.3333330000000032  0.6666669999999968  0.5000000000000000
 
  0.00000000E+00  0.00000000E+00  0.00000000E+00
  0.00000000E+00  0.00000000E+00  0.00000000E+00
