Automatically generated by pypospack
       1.0
  3.508000   0.000000   0.000000
 -1.754000   3.038017   0.000000
  0.000000   0.000000   5.728540
 Ni
 2
Direct
  0.000000   0.000000   0.000000
  0.333333   0.666667   0.500000
