Mg1 O1                                  
   1.00000000000000     
     3.0097879999999999    0.0000000000000000    0.0000000000000000
     1.5048940000000000    2.6065529999999999    0.0000000000000000
     1.5048940000000000    0.8688510000000000    2.4574820000000002
   Mg   O 
     1     1
Direct
  0.0000000000000000  0.0000000000000000  0.0000000000000000
  0.5000000000000000  0.5000000000000000  0.5000000000000000
 
  0.00000000E+00  0.00000000E+00  0.00000000E+00
  0.00000000E+00  0.00000000E+00  0.00000000E+00
