Automatically generated by pypospack
       1.0
  3.508000   0.000000   0.000000
  0.000000   3.508000   0.000000
  0.000000   0.000000   3.508000
 Ni
 4
Direct
  0.000000   0.000000   0.000000
  0.000000   0.500000   0.500000
  0.500000   0.000000   0.500000
  0.500000   0.500000   0.000000
