# ---- initialize simulations
clear
units metal
dimension 3
boundary p p p
atom_style charge
atom_modify map array
# ---- create atoms
read_data /Users/eugeneragasa/pyflamestk_git/pypospack/tests/tests_integration/task/lammps/LammpsPositionMinimization/MgO_NaCl.E_min_pos/lammps.structure
# ---- define interatomic potential
include potential.mod
# ---- define settings
compute eng all pe/atom
compute eatoms all reduce sum c_eng
# ---- run minimization
reset_timestep 0
thermo 1
thermo_style custom step pe lx ly lz xy xz yz press pxx pyy pzz pxy pxz pyz c_eatoms
minimize 1e-20 1e-20 1000 100000
# ---- define output variables ----
variable natoms equal "count(all)"
variable tot_energy equal "c_eatoms"
variable length_x equal "lx"
variable length_y equal "ly"
variable length_z equal "lz"
variable tilt_xy equal "xy"
variable tilt_xz equal "xz"
variable tilt_yz equal "yz"
variable tot_press equal "press"
variable press_xx equal "pxx"
variable press_yy equal "pyy"
variable press_zz equal "pzz"
variable press_xy equal "pxy"
variable press_xz equal "pxz"
variable press_yz equal "pyz"

# ---- output ----
print "pypospack:output_section:begin"
print "tot_energy = ${tot_energy}"
print "num_atoms = ${natoms}"
print "xx = ${length_x}"
print "yy = ${length_y}"
print "zz = ${length_z}"
print "xy = ${tilt_xy}"
print "xz = ${tilt_xz}"
print "yz = ${tilt_yz}"
print "tot_press = ${tot_press}"
print "pxx = ${press_xx}"
print "pyy = ${press_yy}"
print "pzz = ${press_zz}"
print "pxy = ${press_xy}"
print "pxz = ${press_xz}"
print "pyz = ${press_yz}"
print "pypospack:output_section:done"
print "pypospack:lammps_sim:done"
