Automatically generated by pypospack    
   3.44700000000000     
     0.9917323120960955   -0.0000000000000000    0.0000000000000000
     0.0000000000000000    0.9917323120960955   -0.0000000000000000
    -0.0000000000000000    0.0000000000000000    1.0342716372828509
   Fe
     4
Direct
 -0.0000000000000000  0.0000000000000000  0.0000000000000000
  0.5000000000000000  0.5000000000000000 -0.0000000000000000
  0.5000000000000000 -0.0000000000000000  0.5000000000000000
 -0.0000000000000000  0.5000000000000000  0.5000000000000000
 
  0.00000000E+00  0.00000000E+00  0.00000000E+00
  0.00000000E+00  0.00000000E+00  0.00000000E+00
  0.00000000E+00  0.00000000E+00  0.00000000E+00
  0.00000000E+00  0.00000000E+00  0.00000000E+00
