Automatically generated by pypospack    
   3.44700000000000     
     1.0002548027518539    0.0000000000000000   -0.0000000000000000
     0.0000000000000000    1.0002548027518539    0.0000000000000000
    -0.0000000000000000    0.0000000000000000    2.0779283621214968
   Fe
     8
Direct
  0.0000000000000000  0.0000000000000000  0.0052438732944949
  0.5000000000000000  0.5000000000000000  0.0052438732944949
  0.5000000000000000  0.0000000000000000  0.2447561267055051
 -0.0000000000000000  0.5000000000000000  0.2447561267055051
  0.0000000000000000  0.0000000000000000  0.5052438732944950
  0.5000000000000000  0.5000000000000000  0.5052438732944950
  0.5000000000000000  0.0000000000000000  0.7447561267055050
 -0.0000000000000000  0.5000000000000000  0.7447561267055050
 
  0.00000000E+00  0.00000000E+00  0.00000000E+00
  0.00000000E+00  0.00000000E+00  0.00000000E+00
  0.00000000E+00  0.00000000E+00  0.00000000E+00
  0.00000000E+00  0.00000000E+00  0.00000000E+00
  0.00000000E+00  0.00000000E+00  0.00000000E+00
  0.00000000E+00  0.00000000E+00  0.00000000E+00
  0.00000000E+00  0.00000000E+00  0.00000000E+00
  0.00000000E+00  0.00000000E+00  0.00000000E+00
