Automatic Mesh
0
Monkhorst-Pack
14 14 7
0 0 0 
