Automatically generated by pypospack
     3.447
  1.000000   0.000000   0.000000
  0.000000   1.000000   0.000000
  0.000000   0.000000   2.000000
 Fe
 8
Direct
  0.000000   0.000000   0.000000
  0.500000   0.500000   0.000000
  0.500000   0.000000   0.250000
  0.000000   0.500000   0.250000
  0.000000   0.000000   0.500000
  0.500000   0.500000   0.500000
  0.500000   0.000000   0.750000
  0.000000   0.500000   0.750000
