Automatically generated by pypospack
       1.0
  2.793739   0.000000   0.000000
  0.000000   2.793739   0.000000
 -0.000000   0.000000   2.793739
 Ni
 2
Direct
 -0.000000  -0.000000  -0.000000
  0.500000   0.500000   0.500000
