Mg1 O1
       1.0
  3.009788   0.000000   0.000000
  1.504894   2.606553   0.000000
  1.504894   0.868851   2.457482
 Mg O
 1 1
Direct
  0.000000   0.000000   0.000000
  0.500000   0.500000   0.500000
