units           metal

atom_style      atomic
atom_modify     map array
boundary        p p p
atom_modify	sort 0 0.0

# temperature

variable t equal 1800.0

# cubic diamond unit cell

variable a equal 5.431
lattice         custom $a               &
                a1 1.0 0.0 0.0          &
                a2 0.0 1.0 0.0          &
                a3 0.0 0.0 1.0          &
                basis 0.0 0.0 0.0       &
                basis 0.0 0.5 0.5       &
                basis 0.5 0.0 0.5       &
                basis 0.5 0.5 0.0       &
                basis 0.25 0.25 0.25    &
                basis 0.25 0.75 0.75    &
                basis 0.75 0.25 0.75    &
                basis 0.75 0.75 0.25

region          myreg block     0 4 &
                                0 4 &
                                0 4

create_box      8 myreg
create_atoms    1 region myreg &
		basis 1 1  &
		basis 2 2  &
		basis 3 3  &
		basis 4 4  &
		basis 5 5  &
		basis 6 6  &
		basis 7 7  &
		basis 8 8

mass            *       28.06

velocity 	all create $t 5287287 mom yes rot yes dist gaussian

# Equilibrate using Stillinger-Weber model for silicon

pair_style      sw
pair_coeff 	* * Si.sw Si Si Si Si Si Si Si Si

thermo          10
fix             1 all nvt temp $t $t 0.1
fix_modify 	1 energy yes
timestep        1.0e-3
neighbor        1.0 bin
neigh_modify    every 1 delay 10 check yes
run             100


