Automatically generated by pypospack
     3.447
  3.000000   0.000000   0.000000
  0.000000   3.000000   0.000000
  0.000000   0.000000   3.000000
 Fe
 109
Direct
  0.000000   0.000000   0.000000
  0.166667   0.166667   0.000000
  0.166667   0.000000   0.166667
  0.000000   0.166667   0.166667
  0.000000   0.000000   0.333333
  0.166667   0.166667   0.333333
  0.166667   0.000000   0.500000
  0.000000   0.166667   0.500000
  0.000000   0.000000   0.666667
  0.166667   0.166667   0.666667
  0.166667   0.000000   0.833333
  0.000000   0.166667   0.833333
  0.000000   0.333333   0.000000
  0.166667   0.500000   0.000000
  0.166667   0.333333   0.166667
  0.000000   0.500000   0.166667
  0.000000   0.333333   0.333333
  0.166667   0.500000   0.333333
  0.166667   0.333333   0.500000
  0.000000   0.500000   0.500000
  0.000000   0.333333   0.666667
  0.166667   0.500000   0.666667
  0.166667   0.333333   0.833333
  0.000000   0.500000   0.833333
  0.000000   0.666667   0.000000
  0.166667   0.833333   0.000000
  0.166667   0.666667   0.166667
  0.000000   0.833333   0.166667
  0.000000   0.666667   0.333333
  0.166667   0.833333   0.333333
  0.166667   0.666667   0.500000
  0.000000   0.833333   0.500000
  0.000000   0.666667   0.666667
  0.166667   0.833333   0.666667
  0.166667   0.666667   0.833333
  0.000000   0.833333   0.833333
  0.333333   0.000000   0.000000
  0.500000   0.166667   0.000000
  0.500000   0.000000   0.166667
  0.333333   0.166667   0.166667
  0.333333   0.000000   0.333333
  0.500000   0.166667   0.333333
  0.500000   0.000000   0.500000
  0.333333   0.166667   0.500000
  0.333333   0.000000   0.666667
  0.500000   0.166667   0.666667
  0.500000   0.000000   0.833333
  0.333333   0.166667   0.833333
  0.333333   0.333333   0.000000
  0.500000   0.500000   0.000000
  0.500000   0.333333   0.166667
  0.333333   0.500000   0.166667
  0.333333   0.333333   0.333333
  0.500000   0.500000   0.333333
  0.500000   0.333333   0.500000
  0.333333   0.500000   0.500000
  0.333333   0.333333   0.666667
  0.500000   0.500000   0.666667
  0.500000   0.333333   0.833333
  0.333333   0.500000   0.833333
  0.333333   0.666667   0.000000
  0.500000   0.833333   0.000000
  0.500000   0.666667   0.166667
  0.333333   0.833333   0.166667
  0.333333   0.666667   0.333333
  0.500000   0.833333   0.333333
  0.500000   0.666667   0.500000
  0.333333   0.833333   0.500000
  0.333333   0.666667   0.666667
  0.500000   0.833333   0.666667
  0.500000   0.666667   0.833333
  0.333333   0.833333   0.833333
  0.666667   0.000000   0.000000
  0.833333   0.166667   0.000000
  0.833333   0.000000   0.166667
  0.666667   0.166667   0.166667
  0.666667   0.000000   0.333333
  0.833333   0.166667   0.333333
  0.833333   0.000000   0.500000
  0.666667   0.166667   0.500000
  0.666667   0.000000   0.666667
  0.833333   0.166667   0.666667
  0.833333   0.000000   0.833333
  0.666667   0.166667   0.833333
  0.666667   0.333333   0.000000
  0.833333   0.500000   0.000000
  0.833333   0.333333   0.166667
  0.666667   0.500000   0.166667
  0.666667   0.333333   0.333333
  0.833333   0.500000   0.333333
  0.833333   0.333333   0.500000
  0.666667   0.500000   0.500000
  0.666667   0.333333   0.666667
  0.833333   0.500000   0.666667
  0.833333   0.333333   0.833333
  0.666667   0.500000   0.833333
  0.666667   0.666667   0.000000
  0.833333   0.833333   0.000000
  0.833333   0.666667   0.166667
  0.666667   0.833333   0.166667
  0.666667   0.666667   0.333333
  0.833333   0.833333   0.333333
  0.833333   0.666667   0.500000
  0.666667   0.833333   0.500000
  0.666667   0.666667   0.666667
  0.833333   0.833333   0.666667
  0.833333   0.666667   0.833333
  0.666667   0.833333   0.833333
  0.166667   0.000000   0.000000
